============================[ Problem Statistics ]=============================|                                                                             ||  Number of variables:          4242                                         ||  Number of clauses:            9869                                         ||  Parse time:                   0.29 s                                       ||                                                                             |============================[ Search Statistics ]==============================| Conflicts |          ORIGINAL         |          LEARNT          | Progress ||           |    Vars  Clauses Literals |    Limit  Clauses Lit/Cl |          |===============================================================================|       100 |    1591     6074   411135 |     2227      100     53 | 62.501 % |===============================================================================restarts              : 2conflicts             : 157            (361 /sec)decisions             : 327            (0.00 % random) (752 /sec)propagations          : 9972           (22924 /sec)conflict literals     : 10317          (95.36 % deleted)CPU time              : 0.435 sSATISFIABLE